 &CONTROL
                       title = 'Isolated Fluorine' ,
                 calculation = 'scf' ,
                restart_mode = 'from_scratch' ,
                  wf_collect = .true. ,
                  pseudo_dir = '/home/scheiber/project/pseudopotentials/' ,
                      prefix = 'FreeF' ,
                 lkpoint_dir = .true. ,
                     disk_io = 'default' ,
                   verbosity = 'default' ,
               etot_conv_thr = 1.0D-9 ,
 /
 &SYSTEM
                       ibrav = 0,
                         nat = 1,
                        ntyp = 1,
                     ecutwfc = 100 ,
                    lspinorb = .true. ,
                    noncolin = .true. ,
             assume_isolated = 'mt' ,
 /
 &ELECTRONS
           scf_must_converge = .true. ,
                    conv_thr = 1D-9 ,
                 startingwfc = 'atomic' ,
 /
 
 CELL_PARAMETERS angstrom
 25.00 0.0   0.0
 0.0   25.00 0.0
 0.0   0.0   25.00
ATOMIC_SPECIES
 F  9 F.rel-pbe-n-kjpaw_psl.0.1.UPF

ATOMIC_POSITIONS crystal
 F  0.5   0.5   0.5

K_POINTS automatic 
  1 1 1   1 1 1 
