 &CONTROL
                       title = 'LiF Wurtzite' ,
                 calculation = 'scf' ,
                restart_mode = 'from_scratch' ,
                  wf_collect = .true. ,
                  pseudo_dir = '/home/scheiber/project/pseudopotentials/' ,
                      prefix = 'LiFiWurtz' ,
                 lkpoint_dir = .true. ,
                     disk_io = 'default' ,
                   verbosity = 'default' ,
               etot_conv_thr = 1.0D-9 ,
 /
 &SYSTEM
                       ibrav = 4,
                           A = ##ALAT## ,
                           C = ##CLAT## ,
                         nat = 4,
                        ntyp = 2,
                     ecutwfc = 100 ,
                    lspinorb = .true. ,
                    noncolin = .true. ,
 /
 &ELECTRONS
           scf_must_converge = .true. ,
                    conv_thr = 1D-7 ,
                 startingwfc = 'atomic+random' ,
 /
 
ATOMIC_SPECIES
 Li  3 Li.rel-pbe-s-kjpaw_psl.0.2.1.UPF
 F   9 F.rel-pbe-n-kjpaw_psl.0.1.UPF

ATOMIC_POSITIONS crystal
 Li  0.333333   0.666667   0.375000
 Li  0.666667   0.333333   0.875000
 F   0.333333   0.666667   0.000000
 F   0.666667   0.333333   0.500000

K_POINTS automatic 
  1 1 1   1 1 1 
