%mem=##MEMORY##
%NProcShared=##CORES##

#p ##THER##/##BASS## scan SCF=(NoVarAcc,tight,NoIncFock,Conver=##CONV##)
int(grid=ultrafine) ##DISP####IOPS##

FF ion pair ##THERT## PES with ##BASST## basis ##DISPT##

 -2   1
 F 
 F 1 R1

R1 1.0 90 0.1

##GENBAS##
##GENECP##